62      4       
15      30      13      19      
0       0       0       0       0       3       2       3       4       
10      0       0       0       8       3       20      40      58      
2       0       9       0       0       3       5       24      25      
9       0       0       0       3       3       15      32      35      
3       0       0       3       0       3       6       7       9       
7       0       0       2       0       3       13      14      34      
10      0       0       9       0       3       8       17      27      
1       0       7       0       0       3       10      29      33      
10      0       10      0       0       3       11      12      39      
5       0       0       0       9       2       21      49      
2       0       0       0       3       3       13      31      50      
6       0       5       0       0       2       19      32      
7       0       10      0       0       1       26      
9       2       0       0       0       3       15      44      47      
4       0       3       0       0       3       16      26      41      
1       0       3       0       0       2       51      55      
8       0       0       4       0       3       18      19      43      
2       0       0       1       0       1       28      
1       2       0       0       0       2       36      46      
5       0       0       2       0       1       53      
6       0       0       0       5       3       22      30      48      
6       0       0       6       0       2       23      45      
7       0       5       0       0       2       38      58      
8       3       0       0       0       2       38      52      
10      0       0       0       10      3       34      37      54      
2       0       0       2       0       1       38      
2       0       2       0       0       2       35      44      
2       0       0       6       0       1       42      
6       0       0       0       5       2       30      42      
1       7       0       0       0       1       53      
4       0       0       0       9       3       49      51      57      
2       0       10      0       0       2       45      52      
10      0       8       0       0       2       37      40      
4       0       0       0       2       1       46      
4       0       8       0       0       1       46      
6       9       0       0       0       2       50      56      
3       1       0       0       0       2       43      55      
2       5       0       0       0       1       59      
5       0       4       0       0       1       56      
9       0       8       0       0       2       48      54      
1       0       0       0       5       1       43      
5       0       0       0       4       3       44      53      54      
9       0       0       0       1       2       45      49      
1       6       0       0       0       2       48      61      
3       0       5       0       0       1       60      
4       0       6       0       0       1       51      
3       0       7       0       0       1       50      
10      0       10      0       0       2       55      56      
3       0       0       0       7       1       61      
2       1       0       0       0       1       58      
9       0       0       0       1       1       52      
6       0       7       0       0       1       60      
8       0       0       9       0       1       57      
10      0       0       0       5       1       60      
10      0       0       0       3       1       57      
8       0       1       0       0       1       59      
5       0       0       6       0       1       59      
5       0       6       0       0       1       61      
7       0       0       0       5       1       62      
6       0       0       0       9       1       62      
2       0       1       0       0       1       62      
0       0       0       0       0       0       